(benchmark gametime
:status unknown
:logic QF_AUFBV
:extrafuns ((gtINDEX53  BitVec[32]))
:extrafuns ((gtFIELD__bitsForTID0__gtAGG____anonstruct_D_Work_4  Array[32:32]))
:extrafuns ((gtINDEX54  BitVec[32]))
:extrafuns ((gtAGG__rtDWork  BitVec[32]))
:extrafuns ((gtINDEX51  BitVec[32]))
:extrafuns ((gtINDEX52  BitVec[32]))
:extrafuns ((gtINDEX49  BitVec[32]))
:extrafuns ((gtINDEX50  BitVec[32]))
:extrafuns ((gtINDEX47  BitVec[32]))
:extrafuns ((gtINDEX48  BitVec[32]))
:extrafuns ((gtINDEX46  BitVec[32]))
:extrafuns ((gtINDEX45  BitVec[32]))
:extrafuns ((gtINDEX44  BitVec[32]))
:extrafuns ((gtINDEX43  BitVec[32]))
:extrafuns ((gtINDEX41  BitVec[32]))
:extrafuns ((gtINDEX42  BitVec[32]))
:extrafuns ((gtINDEX39  BitVec[32]))
:extrafuns ((gtINDEX40  BitVec[32]))
:extrafuns ((gtINDEX37  BitVec[32]))
:extrafuns ((gtINDEX38  BitVec[32]))
:extrafuns ((gtINDEX35  BitVec[32]))
:extrafuns ((gtINDEX36  BitVec[32]))
:extrafuns ((gtINDEX34  BitVec[32]))
:extrafuns ((gtINDEX32  BitVec[32]))
:extrafuns ((gtINDEX33  BitVec[32]))
:extrafuns ((gtINDEX31  BitVec[32]))
:extrafuns ((gtINDEX29  BitVec[32]))
:extrafuns ((gtINDEX30  BitVec[32]))
:extrafuns ((gtINDEX27  BitVec[32]))
:extrafuns ((gtINDEX28  BitVec[32]))
:extrafuns ((gtINDEX25  BitVec[32]))
:extrafuns ((gtINDEX26  BitVec[32]))
:extrafuns ((gtINDEX23  BitVec[32]))
:extrafuns ((gtINDEX24  BitVec[32]))
:extrafuns ((gtINDEX22  BitVec[32]))
:extrafuns ((gtINDEX21  BitVec[32]))
:extrafuns ((gtINDEX20  BitVec[32]))
:extrafuns ((gtINDEX19  BitVec[32]))
:extrafuns ((gtINDEX18  BitVec[32]))
:extrafuns ((gtINDEX17  BitVec[32]))
:extrafuns ((gtINDEX16  BitVec[32]))
:extrafuns ((gtINDEX14  BitVec[32]))
:extrafuns ((gtINDEX15  BitVec[32]))
:extrafuns ((gtINDEX12  BitVec[32]))
:extrafuns ((gtINDEX13  BitVec[32]))
:extrafuns ((gtINDEX10  BitVec[32]))
:extrafuns ((gtINDEX11  BitVec[32]))
:extrafuns ((gtINDEX8  BitVec[32]))
:extrafuns ((gtINDEX9  BitVec[32]))
:extrafuns ((gtINDEX6  BitVec[32]))
:extrafuns ((gtINDEX7  BitVec[32]))
:extrafuns ((gtINDEX4  BitVec[32]))
:extrafuns ((gtINDEX5  BitVec[32]))
:extrafuns ((gtINDEX2  BitVec[32]))
:extrafuns ((gtINDEX3  BitVec[32]))
:extrafuns ((gtINDEX0  BitVec[32]))
:extrafuns ((gtINDEX1  BitVec[32]))
:extrafuns ((gtFIELD__is_Eng__gtAGG____anonstruct_bitsForTID0_5_1_  Array[32:1]))
:extrafuns ((gtFIELD__is_Eng__gtAGG____anonstruct_bitsForTID0_5_2_  Array[32:1]))
:extrafuns ((sf_previousEvent_1_  BitVec[32]))
:extrafuns ((sfEvent__2_  BitVec[32]))
:extrafuns ((gtFIELD__is_Eng__gtAGG____anonstruct_bitsForTID0_5  Array[32:1]))
:extrafuns ((gtFIELD__sent__gtAGG____anonstruct_D_Work_4_1_  Array[32:32]))
:extrafuns ((gtFIELD__sent__gtAGG____anonstruct_D_Work_4_2_  Array[32:32]))
:extrafuns ((gtFIELD__is_active_Eng__gtAGG____anonstruct_bitsForTID0_5  Array[32:1]))
:extrafuns ((gtFIELD__is_active_PURI__gtAGG____anonstruct_bitsForTID0_5  Array[32:1]))
:extrafuns ((gtFIELD__is_active_PVRP__gtAGG____anonstruct_bitsForTID0_5  Array[32:1]))
:extrafuns ((gtFIELD__temporalCounter_i3__gtAGG____anonstruct_D_Work_4  Array[32:32]))
:extrafuns ((gtFIELD__temporalCounter_i3__gtAGG____anonstruct_D_Work_4_1_  Array[32:32]))
:extrafuns ((gtFIELD__is_PPVARP__gtAGG____anonstruct_bitsForTID0_5  Array[32:2]))
:extrafuns ((gtFIELD__is_PPVARP__gtAGG____anonstruct_bitsForTID0_5_1_  Array[32:2]))
:extrafuns ((gtFIELD__n_t_b__gtAGG____anonstruct_D_Work_4  Array[32:32]))
:extrafuns ((gtFIELD__n_t_b__gtAGG____anonstruct_D_Work_4_1_  Array[32:32]))
:extrafuns ((sfEvent__1_  BitVec[32]))
:extrafuns ((gtFIELD__is_active_PPVARP__gtAGG____anonstruct_bitsForTID0_5  Array[32:1]))
:extrafuns ((gtFIELD__is_active_PLRI__gtAGG____anonstruct_bitsForTID0_5  Array[32:1]))
:extrafuns ((gtFIELD__is_active_PAVI__gtAGG____anonstruct_bitsForTID0_5  Array[32:1]))
:extrafuns ((sfEvent_  BitVec[32]))
:extrafuns ((gtFIELD__sent__gtAGG____anonstruct_D_Work_4  Array[32:32]))
:extrapreds ((constraint97 ))
:extrapreds ((constraint96 ))
:extrapreds ((constraint95 ))
:extrapreds ((constraint94 ))
:extrapreds ((constraint93 ))
:extrapreds ((constraint92 ))
:extrapreds ((constraint91 ))
:extrapreds ((constraint90 ))
:extrapreds ((constraint89 ))
:extrapreds ((constraint88 ))
:extrapreds ((constraint87 ))
:extrapreds ((constraint86 ))
:extrapreds ((constraint85 ))
:extrapreds ((constraint84 ))
:extrapreds ((constraint83 ))
:extrapreds ((constraint82 ))
:extrapreds ((constraint81 ))
:extrapreds ((constraint80 ))
:extrapreds ((constraint79 ))
:extrapreds ((constraint78 ))
:extrapreds ((constraint77 ))
:extrapreds ((constraint76 ))
:extrapreds ((constraint75 ))
:extrapreds ((constraint74 ))
:extrapreds ((constraint73 ))
:extrapreds ((constraint72 ))
:extrapreds ((constraint71 ))
:extrapreds ((constraint70 ))
:extrapreds ((constraint69 ))
:extrapreds ((constraint68 ))
:extrapreds ((constraint67 ))
:extrapreds ((constraint66 ))
:extrapreds ((constraint65 ))
:extrapreds ((constraint64 ))
:extrapreds ((constraint63 ))
:extrapreds ((constraint62 ))
:extrapreds ((constraint61 ))
:extrapreds ((constraint60 ))
:extrapreds ((constraint59 ))
:extrapreds ((constraint58 ))
:extrapreds ((constraint57 ))
:extrapreds ((constraint56 ))
:extrapreds ((constraint55 ))
:extrapreds ((constraint54 ))
:extrapreds ((constraint53 ))
:extrapreds ((constraint52 ))
:extrapreds ((constraint51 ))
:extrapreds ((constraint50 ))
:extrapreds ((constraint49 ))
:extrapreds ((constraint48 ))
:extrapreds ((constraint47 ))
:extrapreds ((constraint46 ))
:extrapreds ((constraint45 ))
:extrapreds ((constraint44 ))
:extrapreds ((constraint43 ))
:extrapreds ((constraint42 ))
:extrapreds ((constraint41 ))
:extrapreds ((constraint40 ))
:extrapreds ((constraint39 ))
:extrapreds ((constraint38 ))
:extrapreds ((constraint37 ))
:extrapreds ((constraint36 ))
:extrapreds ((constraint35 ))
:extrapreds ((constraint34 ))
:extrapreds ((constraint33 ))
:extrapreds ((constraint32 ))
:extrapreds ((constraint31 ))
:extrapreds ((constraint30 ))
:extrapreds ((constraint29 ))
:extrapreds ((constraint28 ))
:extrapreds ((constraint27 ))
:extrapreds ((constraint26 ))
:extrapreds ((constraint25 ))
:extrapreds ((constraint24 ))
:extrapreds ((constraint23 ))
:extrapreds ((constraint22 ))
:extrapreds ((constraint21 ))
:extrapreds ((constraint20 ))
:extrapreds ((constraint19 ))
:extrapreds ((constraint18 ))
:extrapreds ((constraint17 ))
:extrapreds ((constraint16 ))
:extrapreds ((constraint15 ))
:extrapreds ((constraint14 ))
:extrapreds ((constraint13 ))
:extrapreds ((constraint12 ))
:extrapreds ((constraint11 ))
:extrapreds ((constraint10 ))
:extrapreds ((constraint9 ))
:extrapreds ((constraint8 ))
:extrapreds ((constraint7 ))
:extrapreds ((constraint6 ))
:extrapreds ((constraint5 ))
:extrapreds ((constraint4 ))
:extrapreds ((constraint3 ))
:extrapreds ((constraint2 ))
:extrapreds ((constraint1 ))
:extrapreds ((constraint0 ))
:formula
(flet ($x512 (and constraint0 constraint1 constraint2 constraint3 constraint4 constraint5 constraint6 constraint7 constraint8 constraint9 constraint10 constraint11 constraint12 constraint13 constraint14 constraint15 constraint16 constraint17 constraint18 constraint19 constraint20 constraint21 constraint22 constraint23 constraint24 constraint25 constraint26 constraint27 constraint28 constraint29 constraint30 constraint31 constraint32 constraint33 constraint34 constraint35 constraint36 constraint37 constraint38 constraint39 constraint40 constraint41 constraint42 constraint43 constraint44 constraint45 constraint46 constraint47 constraint48 constraint49 constraint50 constraint51 constraint52 constraint53 constraint54 constraint55 constraint56 constraint57 constraint58 constraint59 constraint60 constraint61 constraint62 constraint63 constraint64 constraint65 constraint66 constraint67 constraint68 constraint69 constraint70 constraint71 constraint72 constraint73 constraint74 constraint75 constraint76 constraint77 constraint78 constraint79 constraint80 constraint81 constraint82 constraint83 constraint84 constraint85 constraint86 constraint87 constraint88 constraint89 constraint90 constraint91 constraint92 constraint93 constraint94 constraint95 constraint96 constraint97))
(flet ($x314 (= gtINDEX54 (select gtFIELD__bitsForTID0__gtAGG____anonstruct_D_Work_4 gtINDEX53)))
(flet ($x310 (= gtINDEX52 (select gtFIELD__bitsForTID0__gtAGG____anonstruct_D_Work_4 gtINDEX51)))
(flet ($x306 (= gtINDEX50 (select gtFIELD__bitsForTID0__gtAGG____anonstruct_D_Work_4 gtINDEX49)))
(flet ($x302 (= gtINDEX48 (select gtFIELD__bitsForTID0__gtAGG____anonstruct_D_Work_4 gtINDEX47)))
(flet ($x294 (= gtINDEX42 (select gtFIELD__bitsForTID0__gtAGG____anonstruct_D_Work_4 gtINDEX41)))
(flet ($x290 (= gtINDEX40 (select gtFIELD__bitsForTID0__gtAGG____anonstruct_D_Work_4 gtINDEX39)))
(flet ($x286 (= gtINDEX38 (select gtFIELD__bitsForTID0__gtAGG____anonstruct_D_Work_4 gtINDEX37)))
(flet ($x282 (= gtINDEX36 (select gtFIELD__bitsForTID0__gtAGG____anonstruct_D_Work_4 gtINDEX35)))
(flet ($x277 (= gtINDEX33 (select gtFIELD__bitsForTID0__gtAGG____anonstruct_D_Work_4 gtINDEX32)))
(flet ($x272 (= gtINDEX30 (select gtFIELD__bitsForTID0__gtAGG____anonstruct_D_Work_4 gtINDEX29)))
(flet ($x268 (= gtINDEX28 (select gtFIELD__bitsForTID0__gtAGG____anonstruct_D_Work_4 gtINDEX27)))
(flet ($x264 (= gtINDEX26 (select gtFIELD__bitsForTID0__gtAGG____anonstruct_D_Work_4 gtINDEX25)))
(flet ($x260 (= gtINDEX24 (select gtFIELD__bitsForTID0__gtAGG____anonstruct_D_Work_4 gtINDEX23)))
(flet ($x249 (= gtINDEX15 (select gtFIELD__bitsForTID0__gtAGG____anonstruct_D_Work_4 gtINDEX14)))
(flet ($x245 (= gtINDEX13 (select gtFIELD__bitsForTID0__gtAGG____anonstruct_D_Work_4 gtINDEX12)))
(flet ($x241 (= gtINDEX11 (select gtFIELD__bitsForTID0__gtAGG____anonstruct_D_Work_4 gtINDEX10)))
(flet ($x237 (= gtINDEX9 (select gtFIELD__bitsForTID0__gtAGG____anonstruct_D_Work_4 gtINDEX8)))
(flet ($x233 (= gtINDEX7 (select gtFIELD__bitsForTID0__gtAGG____anonstruct_D_Work_4 gtINDEX6)))
(flet ($x229 (= gtINDEX5 (select gtFIELD__bitsForTID0__gtAGG____anonstruct_D_Work_4 gtINDEX4)))
(flet ($x225 (= gtINDEX3 (select gtFIELD__bitsForTID0__gtAGG____anonstruct_D_Work_4 gtINDEX2)))
(flet ($x221 (= gtINDEX1 (select gtFIELD__bitsForTID0__gtAGG____anonstruct_D_Work_4 gtINDEX0)))
(let (?x205 (extract[0:0] bv1[32]))
(let (?x215 (store gtFIELD__is_Eng__gtAGG____anonstruct_bitsForTID0_5_1_ gtINDEX54 ?x205))
(flet ($x400 (iff constraint42 (= gtFIELD__is_Eng__gtAGG____anonstruct_bitsForTID0_5_2_ ?x215)))
(let (?x211 (select gtFIELD__is_Eng__gtAGG____anonstruct_bitsForTID0_5_1_ gtINDEX52))
(let (?x206 (store gtFIELD__is_Eng__gtAGG____anonstruct_bitsForTID0_5 gtINDEX50 ?x205))
(flet ($x394 (iff constraint39 (= gtFIELD__is_Eng__gtAGG____anonstruct_bitsForTID0_5_1_ ?x206)))
(let (?x202 (zero_extend[31] (select gtFIELD__is_Eng__gtAGG____anonstruct_bitsForTID0_5 gtINDEX48)))
(let (?x198 (store gtFIELD__sent__gtAGG____anonstruct_D_Work_4_1_ gtINDEX46 bv0[32]))
(flet ($x390 (iff constraint37 (= gtFIELD__sent__gtAGG____anonstruct_D_Work_4_2_ ?x198)))
(let (?x109 (bvmul bv4294967295[32] bv1[32]))
(flet ($x196 (= (select gtFIELD__sent__gtAGG____anonstruct_D_Work_4_1_ gtINDEX45) ?x109))
(flet ($x192 (= (select gtFIELD__sent__gtAGG____anonstruct_D_Work_4_1_ gtINDEX44) bv9[32]))
(flet ($x188 (= (select gtFIELD__sent__gtAGG____anonstruct_D_Work_4_1_ gtINDEX43) bv4[32]))
(let (?x184 (zero_extend[31] (select gtFIELD__is_Eng__gtAGG____anonstruct_bitsForTID0_5 gtINDEX42)))
(let (?x178 (select gtFIELD__is_active_Eng__gtAGG____anonstruct_bitsForTID0_5 gtINDEX40))
(let (?x172 (select gtFIELD__is_active_PURI__gtAGG____anonstruct_bitsForTID0_5 gtINDEX38))
(let (?x166 (select gtFIELD__is_active_PVRP__gtAGG____anonstruct_bitsForTID0_5 gtINDEX36))
(let (?x163 (store gtFIELD__temporalCounter_i3__gtAGG____anonstruct_D_Work_4 gtINDEX34 bv0[32]))
(flet ($x374 (iff constraint29 (= gtFIELD__temporalCounter_i3__gtAGG____anonstruct_D_Work_4_1_ ?x163)))
(let (?x160 (store gtFIELD__is_PPVARP__gtAGG____anonstruct_bitsForTID0_5 gtINDEX33 (extract[1:0] bv2[32])))
(flet ($x372 (iff constraint28 (= gtFIELD__is_PPVARP__gtAGG____anonstruct_bitsForTID0_5_1_ ?x160)))
(flet ($x157 (= gtFIELD__n_t_b__gtAGG____anonstruct_D_Work_4_1_ (store gtFIELD__n_t_b__gtAGG____anonstruct_D_Work_4 gtINDEX31 bv0[32])))
(let (?x152 (select gtFIELD__is_PPVARP__gtAGG____anonstruct_bitsForTID0_5 gtINDEX30))
(let (?x147 (select gtFIELD__is_active_PPVARP__gtAGG____anonstruct_bitsForTID0_5 gtINDEX28))
(let (?x141 (select gtFIELD__is_active_PLRI__gtAGG____anonstruct_bitsForTID0_5 gtINDEX26))
(let (?x135 (select gtFIELD__is_active_PAVI__gtAGG____anonstruct_bitsForTID0_5 gtINDEX24))
(flet ($x127 (= gtFIELD__sent__gtAGG____anonstruct_D_Work_4_1_ (store gtFIELD__sent__gtAGG____anonstruct_D_Work_4 gtINDEX22 ?x109)))
(flet ($x124 (= (select gtFIELD__sent__gtAGG____anonstruct_D_Work_4 gtINDEX21) bv3[32]))
(flet ($x119 (= (select gtFIELD__sent__gtAGG____anonstruct_D_Work_4 gtINDEX20) bv2[32]))
(flet ($x114 (= (select gtFIELD__sent__gtAGG____anonstruct_D_Work_4 gtINDEX19) bv1[32]))
(flet ($x110 (= (select gtFIELD__sent__gtAGG____anonstruct_D_Work_4 gtINDEX18) ?x109))
(flet ($x104 (= (select gtFIELD__sent__gtAGG____anonstruct_D_Work_4 gtINDEX17) bv9[32]))
(flet ($x99 (= (select gtFIELD__sent__gtAGG____anonstruct_D_Work_4 gtINDEX16) bv4[32]))
(let (?x95 (zero_extend[31] (select gtFIELD__is_Eng__gtAGG____anonstruct_bitsForTID0_5 gtINDEX15)))
(let (?x89 (select gtFIELD__is_active_Eng__gtAGG____anonstruct_bitsForTID0_5 gtINDEX13))
(let (?x83 (select gtFIELD__is_active_PURI__gtAGG____anonstruct_bitsForTID0_5 gtINDEX11))
(let (?x77 (select gtFIELD__is_active_PVRP__gtAGG____anonstruct_bitsForTID0_5 gtINDEX9))
(let (?x64 (select gtFIELD__is_PPVARP__gtAGG____anonstruct_bitsForTID0_5 gtINDEX7))
(let (?x59 (select gtFIELD__is_active_PPVARP__gtAGG____anonstruct_bitsForTID0_5 gtINDEX5))
(let (?x53 (select gtFIELD__is_active_PLRI__gtAGG____anonstruct_bitsForTID0_5 gtINDEX3))
(let (?x46 (select gtFIELD__is_active_PAVI__gtAGG____anonstruct_bitsForTID0_5 gtINDEX1))
(flet ($x511 (and (iff constraint0 (not (= sfEvent_ bv8[32]))) (iff constraint1 (not (not (= (zero_extend[31] ?x46) bv0[32])))) (iff constraint2 (not (not (= (zero_extend[31] ?x53) bv0[32])))) (iff constraint3 (not (= (zero_extend[31] ?x59) bv0[32]))) (iff constraint4 (= (zero_extend[30] ?x64) bv1[32])) (iff constraint5 (not (= sfEvent_ bv4[32]))) (iff constraint6 (not (= sfEvent_ bv5[32]))) (iff constraint7 (not (= sfEvent_ bv1[32]))) (iff constraint8 (not (not (= (zero_extend[31] ?x77) bv0[32])))) (iff constraint9 (not (not (= (zero_extend[31] ?x83) bv0[32])))) (iff constraint10 (not (= (zero_extend[31] ?x89) bv0[32]))) (iff constraint11 (= ?x95 bv1[32])) (iff constraint12 (not $x99)) (iff constraint13 (not $x104)) (iff constraint14 (not $x110)) (iff constraint15 (not $x114)) (iff constraint16 (not $x119)) (iff constraint17 $x124) (iff constraint18 $x127) (iff constraint19 (= sf_previousEvent_1_ sfEvent_)) (iff constraint20 (= sfEvent__1_ bv4[32])) (iff constraint21 (not (= sfEvent__1_ bv8[32]))) (iff constraint22 (not (not (= (zero_extend[31] ?x135) bv0[32])))) (iff constraint23 (not (not (= (zero_extend[31] ?x141) bv0[32])))) (iff constraint24 (not (= (zero_extend[31] ?x147) bv0[32]))) (iff constraint25 (= (zero_extend[30] ?x152) bv1[32])) (iff constraint26 (= sfEvent__1_ bv4[32])) (iff constraint27 $x157) $x372 $x374 (iff constraint30 (not (not (= (zero_extend[31] ?x166) bv0[32])))) (iff constraint31 (not (not (= (zero_extend[31] ?x172) bv0[32])))) (iff constraint32 (not (= (zero_extend[31] ?x178) bv0[32]))) (iff constraint33 (= ?x184 bv1[32])) (iff constraint34 (not $x188)) (iff constraint35 (not $x192)) (iff constraint36 $x196) $x390 (iff constraint38 (= ?x202 bv1[32])) $x394 (iff constraint40 (= sfEvent__2_ sf_previousEvent_1_)) (iff constraint41 (= (zero_extend[31] ?x211) bv1[32])) $x400 (iff constraint43 (= gtINDEX0 gtAGG__rtDWork)) (iff constraint44 $x221) (iff constraint45 (= gtINDEX2 gtAGG__rtDWork)) (iff constraint46 $x225) (iff constraint47 (= gtINDEX4 gtAGG__rtDWork)) (iff constraint48 $x229) (iff constraint49 (= gtINDEX6 gtAGG__rtDWork)) (iff constraint50 $x233) (iff constraint51 (= gtINDEX8 gtAGG__rtDWork)) (iff constraint52 $x237) (iff constraint53 (= gtINDEX10 gtAGG__rtDWork)) (iff constraint54 $x241) (iff constraint55 (= gtINDEX12 gtAGG__rtDWork)) (iff constraint56 $x245) (iff constraint57 (= gtINDEX14 gtAGG__rtDWork)) (iff constraint58 $x249) (iff constraint59 (= gtINDEX16 gtAGG__rtDWork)) (iff constraint60 (= gtINDEX17 gtAGG__rtDWork)) (iff constraint61 (= gtINDEX18 gtAGG__rtDWork)) (iff constraint62 (= gtINDEX19 gtAGG__rtDWork)) (iff constraint63 (= gtINDEX20 gtAGG__rtDWork)) (iff constraint64 (= gtINDEX21 gtAGG__rtDWork)) (iff constraint65 (= gtINDEX22 gtAGG__rtDWork)) (iff constraint66 (= gtINDEX23 gtAGG__rtDWork)) (iff constraint67 $x260) (iff constraint68 (= gtINDEX25 gtAGG__rtDWork)) (iff constraint69 $x264) (iff constraint70 (= gtINDEX27 gtAGG__rtDWork)) (iff constraint71 $x268) (iff constraint72 (= gtINDEX29 gtAGG__rtDWork)) (iff constraint73 $x272) (iff constraint74 (= gtINDEX31 gtAGG__rtDWork)) (iff constraint75 (= gtINDEX32 gtAGG__rtDWork)) (iff constraint76 $x277) (iff constraint77 (= gtINDEX34 gtAGG__rtDWork)) (iff constraint78 (= gtINDEX35 gtAGG__rtDWork)) (iff constraint79 $x282) (iff constraint80 (= gtINDEX37 gtAGG__rtDWork)) (iff constraint81 $x286) (iff constraint82 (= gtINDEX39 gtAGG__rtDWork)) (iff constraint83 $x290) (iff constraint84 (= gtINDEX41 gtAGG__rtDWork)) (iff constraint85 $x294) (iff constraint86 (= gtINDEX43 gtAGG__rtDWork)) (iff constraint87 (= gtINDEX44 gtAGG__rtDWork)) (iff constraint88 (= gtINDEX45 gtAGG__rtDWork)) (iff constraint89 (= gtINDEX46 gtAGG__rtDWork)) (iff constraint90 (= gtINDEX47 gtAGG__rtDWork)) (iff constraint91 $x302) (iff constraint92 (= gtINDEX49 gtAGG__rtDWork)) (iff constraint93 $x306) (iff constraint94 (= gtINDEX51 gtAGG__rtDWork)) (iff constraint95 $x310) (iff constraint96 (= gtINDEX53 gtAGG__rtDWork)) (iff constraint97 $x314)))
(and $x511 $x512)))))))))))))))))))))))))))))))))))))))))))))))))))))))))))))))))
)
